16253 13651 12588
14118 15055 14211
14997 12116 14876
15940 14844 12059
15950 12134 13613
12976 16650 11483
13968 15380 13921
12169 12255 15525
13003 14609 14618
13554 16615 11084
15354 13077 14481
13673 14011 14987
13298 15978 13552
13487 11294 15552
16615 10674 10303
14537 16185 11839
16606 12508 11040
16382 12463 12341
12183 14878 14418
14752 15125 13803
13391 12892 15389
15026 15888 12140
14623 15835 12697
15565 11959 14283
13987 12773 15401
12787 16676 11253
14015 13275 15209
14074 11571 15444
14693 15654 13046
14986 13864 14811
16246 14360 12040
15478 15703 10604
11670 16273 13085
14082 15723 13434
16280 14369 11701
13666 14443 14691
15369 14874 13714
16543 11960 11642
16318 11601 12633
15272 14337 14252
15675 14390 13695
13353 13201 15317
16083 12501 13360
15576 15101 12817
12634 11443 15599
